c read Graph
c width = 131
c time = 354 ms
c width = 11
c time = 479 ms
c width = 10
c time = 538 ms
c width = 9
c time = 565 ms
c width = 9
c time = 4544 ms
s td 132 10 144
b 1 1 2 19
b 2 2 3 19 20
b 3 16 17 35 36
b 4 3 19 20 37
b 5 16 35 36 54
b 6 91 109 110 128
b 7 108 125 126 143
b 8 91 110 128 129
b 9 108 125 142 143
b 10 3 4 5 22
b 11 3 5 21 22 38 55
b 12 5 21 22 38 40 55 57
b 13 5 22 38 40 55 57 74
b 14 5 22 40 55 57 74 91
b 15 5 22 24 40 41 57 74 91
b 16 5 24 40 41 57 58 74 91
b 17 5 24 41 57 58 74 75 91
b 18 5 24 41 58 74 75 91 94 113 130
b 19 5 24 41 58 75 77 94 113 130
b 20 5 24 41 58 77 94 96 113 130
b 21 5 24 41 58 60 77 96 113 130
b 22 5 24 41 43 60 77 96 113 130
b 23 5 24 43 60 77 79 96 113 130
b 24 60 77 78 79 96
b 25 5 24 43 60 62 79 96 113 130
b 26 43 60 61 62 79
b 27 5 24 43 62 79 96 113 115 130 134
b 28 96 113 115 130 132 134
b 29 113 130 131 132
b 30 115 132 133 134
b 31 96 113 114 115 132
b 32 5 24 43 62 79 96 98 115 134
b 33 5 24 43 62 79 98 115 117 134
b 34 5 24 43 62 79 81 98 117 134
b 35 62 79 80 81 98
b 36 5 24 43 62 81 98 100 117 134
b 37 5 9 24 26 43 62 81 100 117 134
b 38 9 26 43 45 62 81 100 117 134
b 39 9 26 28 45 62 81 100 117 134
b 40 9 28 45 62 64 81 100 117 134
b 41 9 28 45 64 81 83 100 117 134
b 42 64 81 82 83 100
b 43 9 28 45 47 64 83 100 117 134
b 44 9 28 47 64 83 100 117 119 134 138
b 45 9 28 47 64 83 100 119 134 138
b 46 9 28 47 64 83 100 102 119 138
b 47 9 28 47 64 83 102 119 121 138
b 48 102 119 120 121 138
b 49 9 28 47 64 66 83 102 121 138
b 50 9 13 28 30 47 66 83 102 121 138
b 51 13 30 47 49 66 83 102 121 138
b 52 30 47 49 66 83 102 121 138
b 53 30 47 48 49 66
b 54 13 30 32 49 66 83 102 121 138
b 55 13 32 49 66 83 85 102 121 138
b 56 13 32 49 66 85 102 104 121 138
b 57 85 102 103 104 121
b 58 66 83 84 85 102
b 59 13 30 31 32 49
b 60 9 11 13 28 30 47
b 61 9 10 11 28
b 62 11 12 13 30
b 63 11 28 29 30 47
b 64 47 64 65 66 83
b 65 83 100 101 102 119
b 66 100 117 119 134 136 138
b 67 117 134 135 136
b 68 119 136 137 138
b 69 100 117 118 119 136
b 70 28 45 46 47 64
b 71 45 62 63 64 81
b 72 9 26 27 28 45
b 73 26 43 44 45 62
b 74 5 7 9 24 26 43
b 75 7 24 25 26 43
b 76 7 8 9 26
b 77 5 6 7 24
b 78 81 98 99 100 117
b 79 98 115 116 117 134
b 80 79 96 97 98 115
b 81 24 41 42 43 60
b 82 41 58 59 60 77
b 83 77 94 95 96 113
b 84 58 75 76 77 94
b 85 74 75 91 94 111 113 130
b 86 94 111 112 113 130
b 87 74 75 91 92 94 111 130
b 88 91 92 111 129 130
b 89 91 92 110 111 129
b 90 75 92 93 94 111
b 91 5 22 23 24 41
b 92 55 73 74 91
b 93 38 55 56 57 74
b 94 21 38 39 40 57
b 95 3 21 37 38 55
b 96 3 20 21 37 38
b 97 13 32 49 66 68 85 104 121 138
b 98 13 32 49 68 85 87 104 121 138
b 99 13 32 49 51 68 87 104 121 138
b 100 13 32 51 68 70 87 104 121 138
b 101 13 32 51 70 72 87 89 104 121 138
b 102 68 85 86 87 104
b 103 49 66 67 68 85
b 104 13 15 32 51 70 72 89
b 105 15 32 51 53 70 72 89
b 106 15 32 34 51 53 70 72
b 107 15 34 53 54 72
b 108 15 16 34 53 54
b 109 16 34 35 53 54
b 110 15 32 33 34 51
b 111 34 51 52 53 70
b 112 53 70 71 72 89
b 113 13 14 15 32
b 114 32 49 50 51 68
b 115 51 68 69 70 87
b 116 70 72 87 89 104 121 138 140
b 117 70 72 87 89 104 121 123 140
b 118 70 72 87 89 104 106 123 140
b 119 87 104 105 106 123
b 120 72 89 106 123 140 142
b 121 123 140 141 142
b 122 72 89 106 108 123 142
b 123 72 89 90 108
b 124 89 106 108 123 124 142
b 125 89 106 107 108 124 142
b 126 107 108 124 125 142
b 127 70 87 88 89 106
b 128 104 121 122 123 140
b 129 121 138 139 140
b 130 126 143 144
b 131 109 127 128
b 132 17 18 36
1 2
2 4
3 132
3 5
4 96
5 109
6 131
6 8
7 130
7 9
8 89
9 126
10 11
11 95
11 12
12 94
12 13
13 93
13 14
14 92
14 15
15 91
15 16
16 17
17 18
18 85
18 19
19 84
19 20
20 83
20 21
21 82
21 22
22 23
22 81
23 25
23 24
25 27
25 26
27 32
27 28
28 29
28 30
28 31
32 80
32 33
33 79
33 34
34 36
34 35
36 78
36 37
37 74
37 38
38 73
38 39
39 40
39 72
40 71
40 41
41 43
41 42
43 70
43 44
44 66
44 45
45 46
46 65
46 47
47 49
47 48
49 64
49 50
50 60
50 51
51 54
51 52
52 53
54 55
54 59
55 58
55 56
56 97
56 57
60 61
60 62
60 63
66 67
66 68
66 69
74 77
74 76
74 75
85 86
85 87
87 88
87 90
88 89
95 96
97 103
97 98
98 102
98 99
99 114
99 100
100 115
100 101
101 116
101 104
104 113
104 105
105 112
105 106
106 107
106 110
106 111
107 108
108 109
116 129
116 117
117 128
117 118
118 127
118 119
118 120
120 121
120 122
122 123
122 124
124 125
125 126
